00000000000000000000000000000000000000000000000000,00000000000000000000000000000000000000000000000000,00000000000000000000000000000000000000000000000000,00000000000000000000000000000000000000000000000000,00000000000000000000000000000000000000000000000000,00000000000000000000000000000000000000000000000000,00000000000000000000000000000000000000000000000000,00000000000000000000000000000000000000000000000000,10110100000101101000000101000010010100001000000110,00000000000000000000000000000000000000000000000000,00001010100000000001000010011001001001000111100001,00000000000000000000000000000000000000000000000000,00000000000000000000000000000000000000000000000000,00000000000000000000000000000000000000000000000000,00000000000000000000000000000000000000000000000000,00000000000000000000000000000000000000000000000000,01000001011010010110111000100100100010110000011000,00000000000000000000000000000000000000000000000000,00000000000000000000000000000000000000000000000000,00000000000000000000000000000000000000000000000000,[],[],[],[],[],[],[],[],[9, 0, 9, 2, 0, 4, 0, 0, 0, 0, 0, 9, 0, 2, 20, 0, 14, 0, 0, 0, 0, 0, 0, 20, 0, 20, 0, 0, 0, 0, 2, 0, 0, 4, 0, 20, 0, 0, 0, 0, 4, 0, 0, 0, 0, 0, 0, 2, 3, 0],[],[0, 0, 0, 0, 6, 0, 6, 0, 12, 0, 0, 0, 0, 0, 0, 0, 0, 0, 0, 1, 0, 0, 0, 0, 1, 0, 0, 12, 15, 0, 0, 15, 0, 0, 12, 0, 0, 1, 0, 0, 0, 12, 1, 1, 15, 0, 0, 0, 0, 1],[],[],[],[],[],[0, 11, 0, 0, 0, 0, 0, 5, 0, 19, 13, 0, 8, 0, 0, 13, 0, 8, 10, 0, 5, 13, 7, 0, 0, 0, 7, 0, 0, 7, 0, 0, 13, 0, 0, 0, 19, 0, 7, 13, 0, 0, 0, 0, 0, 13, 8, 0, 0, 0],[],[],[][2, 23, 48, 3],[33, 16, 25, 30, 13],[],[29, 10, 32, 7, 38, 21],[26, 18],[17],[19, 49, 4],[37],[28, 8, 6, 27],[31, 41, 43, 24],[1, 36, 45, 46],[15],[],[11, 5],[35],[],[0, 14],[40, 47],[20, 22, 39, 9, 12],[44, 42, 34]
00000000000000000000000000000000000000000000000000,00000000000000000000000000000000000000000000000000,00000000000000000000000000000000000000000000000000,00000000000000000000000000000000000000000000000000,00000000000000000000000000000000000000000000000000,00000000000000000000000000000000000000000000000000,00000000000000000000000000000000000000000000000000,00000000000000000000000000000000000000000000000000,10110100000101101000000101000010010100001000000110,00000000000000000000000000000000000000000000000000,00001010100000000001000010011001001001000111100001,00000000000000000000000000000000000000000000000000,00000000000000000000000000000000000000000000000000,00000000000000000000000000000000000000000000000000,00000000000000000000000000000000000000000000000000,00000000000000000000000000000000000000000000000000,01000001011010010110111000100100100010110000011000,00000000000000000000000000000000000000000000000000,00000000000000000000000000000000000000000000000000,00000000000000000000000000000000000000000000000000,[],[],[],[],[],[],[],[],[7, 0, 8, 11, 0, 7, 0, 0, 0, 0, 0, 11, 0, 8, 12, 0, 11, 0, 0, 0, 0, 0, 0, 7, 0, 3, 0, 0, 0, 0, 17, 0, 0, 12, 0, 3, 0, 0, 0, 0, 3, 0, 0, 0, 0, 0, 0, 11, 12, 0],[],[0, 0, 0, 0, 14, 0, 19, 0, 18, 0, 0, 0, 0, 0, 0, 0, 0, 0, 0, 10, 0, 0, 0, 0, 5, 0, 0, 18, 10, 0, 0, 19, 0, 0, 19, 0, 0, 18, 0, 0, 0, 19, 5, 19, 5, 0, 0, 0, 0, 10],[],[],[],[],[],[0, 13, 0, 0, 0, 0, 0, 4, 0, 20, 4, 0, 4, 0, 0, 2, 0, 2, 20, 0, 1, 16, 20, 0, 0, 0, 1, 0, 0, 4, 0, 0, 20, 0, 0, 0, 13, 0, 13, 20, 0, 0, 0, 0, 0, 4, 1, 0, 0, 0],[],[],[][],[12, 29, 15, 21, 20, 1],[27, 41],[24, 6, 43, 42],[36, 26],[46, 18, 10],[],[],[16],[9, 7],[33, 47, 23, 48],[0, 30, 25, 14],[40, 13, 11],[28, 19],[34, 44, 31, 49, 37],[],[4],[8],[38, 32, 22, 17, 45, 39],[2, 35, 5, 3]
00000000000000000000000000000000000000000000000000,00000000000000000000000000000000000000000000000000,00000000000000000000000000000000000000000000000000,00000000000000000000000000000000000000000000000000,00000000000000000000000000000000000000000000000000,00000000000000000000000000000000000000000000000000,00000000000000000000000000000000000000000000000000,00000000000000000000000000000000000000000000000000,10110100000101101000000101000010010100001000000110,00000000000000000000000000000000000000000000000000,00001010100000000001000010011001001001000111100001,00000000000000000000000000000000000000000000000000,00000000000000000000000000000000000000000000000000,00000000000000000000000000000000000000000000000000,00000000000000000000000000000000000000000000000000,00000000000000000000000000000000000000000000000000,01000001011010010110111000100100100010110000011000,00000000000000000000000000000000000000000000000000,00000000000000000000000000000000000000000000000000,00000000000000000000000000000000000000000000000000,[],[],[],[],[],[],[],[],[1, 0, 1, 6, 0, 6, 0, 0, 0, 0, 0, 15, 0, 7, 1, 0, 13, 0, 0, 0, 0, 0, 0, 7, 0, 15, 0, 0, 0, 0, 7, 0, 0, 1, 0, 15, 0, 0, 0, 0, 15, 0, 0, 0, 0, 0, 0, 7, 6, 0],[],[0, 0, 0, 0, 2, 0, 2, 0, 11, 0, 0, 0, 0, 0, 0, 0, 0, 0, 0, 4, 0, 0, 0, 0, 2, 0, 0, 11, 12, 0, 0, 11, 0, 0, 3, 0, 0, 4, 0, 0, 0, 3, 2, 12, 4, 0, 0, 0, 0, 17],[],[],[],[],[],[0, 14, 0, 0, 0, 0, 0, 20, 0, 8, 14, 0, 10, 0, 0, 10, 0, 20, 14, 0, 19, 20, 8, 0, 0, 0, 9, 0, 0, 9, 0, 0, 10, 0, 0, 0, 19, 0, 9, 9, 0, 0, 0, 0, 0, 14, 9, 0, 0, 0],[],[],[][15, 7, 22, 12, 9],[21, 20, 39],[17, 46],[18, 10, 26],[],[36, 45, 38, 32, 1, 29],[],[44, 43, 4],[19, 42, 34],[28, 31, 6],[],[25, 5, 35, 30],[41, 24, 37],[],[2, 16, 48],[27],[3, 0],[8, 49],[23, 40, 33, 14],[47, 13, 11]
00000000000000000000000000000000000000000000000000,00000000000000000000000000000000000000000000000000,00000000000000000000000000000000000000000000000000,00000000000000000000000000000000000000000000000000,00000000000000000000000000000000000000000000000000,00000000000000000000000000000000000000000000000000,00000000000000000000000000000000000000000000000000,00000000000000000000000000000000000000000000000000,10110100000101101000000101000010010100001000000110,00000000000000000000000000000000000000000000000000,00001010100000000001000010011001001001000111100001,00000000000000000000000000000000000000000000000000,00000000000000000000000000000000000000000000000000,00000000000000000000000000000000000000000000000000,00000000000000000000000000000000000000000000000000,00000000000000000000000000000000000000000000000000,01000001011010010110111000100100100010110000011000,00000000000000000000000000000000000000000000000000,00000000000000000000000000000000000000000000000000,00000000000000000000000000000000000000000000000000,[],[],[],[],[],[],[],[],[19, 0, 9, 11, 0, 11, 0, 0, 0, 0, 0, 9, 0, 17, 12, 0, 12, 0, 0, 0, 0, 0, 0, 19, 0, 17, 0, 0, 0, 0, 8, 0, 0, 11, 0, 11, 0, 0, 0, 0, 11, 0, 0, 0, 0, 0, 0, 19, 9, 0],[],[0, 0, 0, 0, 18, 0, 2, 0, 3, 0, 0, 0, 0, 0, 0, 0, 0, 0, 0, 1, 0, 0, 0, 0, 2, 0, 0, 1, 7, 0, 0, 7, 0, 0, 1, 0, 0, 2, 0, 0, 0, 1, 7, 7, 7, 0, 0, 0, 0, 1],[],[],[],[],[],[0, 14, 0, 0, 0, 0, 0, 4, 0, 14, 4, 0, 6, 0, 0, 20, 0, 10, 4, 0, 6, 10, 20, 0, 0, 0, 14, 0, 0, 6, 0, 0, 15, 0, 0, 0, 15, 0, 20, 6, 0, 0, 0, 0, 0, 15, 10, 0, 0, 0],[],[],[][],[0, 11],[2],[25, 35, 3, 5, 16, 33, 13, 40],[8],[],[46, 29, 18, 9],[17, 45, 1, 10],[39, 26, 21, 20],[37, 34, 43, 27, 4],[],[30],[32, 38, 12],[31, 28, 49, 19],[36, 22, 7, 15],[24, 6, 44, 42],[],[],[48, 14, 47, 23],[41]
00000000000000000000000000000000000000000000000000,00000000000000000000000000000000000000000000000000,00000000000000000000000000000000000000000000000000,00000000000000000000000000000000000000000000000000,00000000000000000000000000000000000000000000000000,00000000000000000000000000000000000000000000000000,00000000000000000000000000000000000000000000000000,00000000000000000000000000000000000000000000000000,10110100000101101000000101000010010100001000000110,00000000000000000000000000000000000000000000000000,00001010100000000001000010011001001001000111100001,00000000000000000000000000000000000000000000000000,00000000000000000000000000000000000000000000000000,00000000000000000000000000000000000000000000000000,00000000000000000000000000000000000000000000000000,00000000000000000000000000000000000000000000000000,01000001011010010110111000100100100010110000011000,00000000000000000000000000000000000000000000000000,00000000000000000000000000000000000000000000000000,00000000000000000000000000000000000000000000000000,[],[],[],[],[],[],[],[],[4, 0, 1, 12, 0, 12, 0, 0, 0, 0, 0, 14, 0, 8, 4, 0, 8, 0, 0, 0, 0, 0, 0, 12, 0, 1, 0, 0, 0, 0, 12, 0, 0, 4, 0, 14, 0, 0, 0, 0, 1, 0, 0, 0, 0, 0, 0, 1, 4, 0],[],[0, 0, 0, 0, 9, 0, 19, 0, 9, 0, 0, 0, 0, 0, 0, 0, 0, 0, 0, 11, 0, 0, 0, 0, 9, 0, 0, 9, 15, 0, 0, 19, 0, 0, 15, 0, 0, 9, 0, 0, 0, 19, 5, 19, 15, 0, 0, 0, 0, 9],[],[],[],[],[],[0, 2, 0, 0, 0, 0, 0, 16, 0, 2, 6, 0, 17, 0, 0, 10, 0, 10, 16, 0, 2, 10, 16, 0, 0, 0, 10, 0, 0, 7, 0, 0, 10, 0, 0, 0, 2, 0, 7, 2, 0, 0, 0, 0, 0, 7, 17, 0, 0, 0],[],[],[][37, 42, 6, 27],[21, 7, 17, 12],[8],[44, 24, 49],[],[],[14, 13],[33, 11, 47],[],[23, 48, 25, 3, 30, 40],[28, 41],[9, 46, 38, 26],[],[39, 36],[0, 2],[5, 35, 16],[18, 20],[],[22, 45, 15, 32, 1, 29, 10],[31, 34, 19, 4, 43]
00000000000000000000000000000000000000000000000000,00000000000000000000000000000000000000000000000000,00000000000000000000000000000000000000000000000000,00000000000000000000000000000000000000000000000000,00000000000000000000000000000000000000000000000000,00000000000000000000000000000000000000000000000000,00000000000000000000000000000000000000000000000000,00000000000000000000000000000000000000000000000000,10110100000101101000000101000010010100001000000110,00000000000000000000000000000000000000000000000000,00001010100000000001000010011001001001000111100001,00000000000000000000000000000000000000000000000000,00000000000000000000000000000000000000000000000000,00000000000000000000000000000000000000000000000000,00000000000000000000000000000000000000000000000000,00000000000000000000000000000000000000000000000000,01000001011010010110111000100100100010110000011000,00000000000000000000000000000000000000000000000000,00000000000000000000000000000000000000000000000000,00000000000000000000000000000000000000000000000000,[],[],[],[],[],[],[],[],[10, 0, 10, 2, 0, 4, 0, 0, 0, 0, 0, 4, 0, 10, 1, 0, 6, 0, 0, 0, 0, 0, 0, 2, 0, 4, 0, 0, 0, 0, 2, 0, 0, 1, 0, 10, 0, 0, 0, 0, 2, 0, 0, 0, 0, 0, 0, 2, 2, 0],[],[0, 0, 0, 0, 8, 0, 12, 0, 13, 0, 0, 0, 0, 0, 0, 0, 0, 0, 0, 16, 0, 0, 0, 0, 13, 0, 0, 11, 13, 0, 0, 12, 0, 0, 8, 0, 0, 11, 0, 0, 0, 13, 11, 8, 8, 0, 0, 0, 0, 11],[],[],[],[],[],[0, 7, 0, 0, 0, 0, 0, 19, 0, 7, 15, 0, 19, 0, 0, 15, 0, 14, 3, 0, 14, 18, 3, 0, 0, 0, 14, 0, 0, 15, 0, 0, 7, 0, 0, 0, 5, 0, 5, 7, 0, 0, 0, 0, 0, 19, 3, 0, 0, 0],[],[],[][36, 45, 46],[18, 32, 7, 38, 26],[3, 47],[30, 14, 16, 48],[1],[39, 29, 9, 22, 21],[28, 31, 43, 19],[23, 2, 13, 25],[6, 24, 41, 44, 37],[27],[34, 4],[],[8],[49, 42],[40, 35, 11, 0],[],[5, 33],[],[15, 17, 12],[10, 20]
00000000000000000000000000000000000000000000000000,00000000000000000000000000000000000000000000000000,00000000000000000000000000000000000000000000000000,00000000000000000000000000000000000000000000000000,00000000000000000000000000000000000000000000000000,00000000000000000000000000000000000000000000000000,00000000000000000000000000000000000000000000000000,00000000000000000000000000000000000000000000000000,10110100000101101000000101000010010100001000000110,00000000000000000000000000000000000000000000000000,00001010100000000001000010011001001001000111100001,00000000000000000000000000000000000000000000000000,00000000000000000000000000000000000000000000000000,00000000000000000000000000000000000000000000000000,00000000000000000000000000000000000000000000000000,00000000000000000000000000000000000000000000000000,01000001011010010110111000100100100010110000011000,00000000000000000000000000000000000000000000000000,00000000000000000000000000000000000000000000000000,00000000000000000000000000000000000000000000000000,[],[],[],[],[],[],[],[],[6, 0, 6, 20, 0, 6, 0, 0, 0, 0, 0, 5, 0, 11, 6, 0, 11, 0, 0, 0, 0, 0, 0, 13, 0, 5, 0, 0, 0, 0, 13, 0, 0, 6, 0, 11, 0, 0, 0, 0, 5, 0, 0, 0, 0, 0, 0, 11, 20, 0],[],[0, 0, 0, 0, 9, 0, 10, 0, 7, 0, 0, 0, 0, 0, 0, 0, 0, 0, 0, 9, 0, 0, 0, 0, 17, 0, 0, 4, 7, 0, 0, 12, 0, 0, 10, 0, 0, 4, 0, 0, 0, 4, 9, 4, 9, 0, 0, 0, 0, 17],[],[],[],[],[],[0, 2, 0, 0, 0, 0, 0, 14, 0, 3, 3, 0, 2, 0, 0, 14, 0, 2, 15, 0, 19, 19, 3, 0, 0, 0, 19, 0, 0, 2, 0, 0, 19, 0, 0, 0, 15, 0, 2, 1, 0, 0, 0, 0, 0, 14, 14, 0, 0, 0],[],[],[][39, 21, 1, 38],[13, 40],[19],[47, 30, 35, 14, 16],[],[44, 24, 41, 27, 6],[46, 45, 36],[],[25],[23, 2, 0, 33, 48],[],[29],[5, 3, 11],[26, 7],[28, 4],[31, 34, 42, 43],[],[10, 15, 32, 22],[9, 18, 12, 20, 17],[8, 37, 49]
00000000000000000000000000000000000000000000000000,00000000000000000000000000000000000000000000000000,00000000000000000000000000000000000000000000000000,00000000000000000000000000000000000000000000000000,00000000000000000000000000000000000000000000000000,00000000000000000000000000000000000000000000000000,00000000000000000000000000000000000000000000000000,00000000000000000000000000000000000000000000000000,10110100000101101000000101000010010100001000000110,00000000000000000000000000000000000000000000000000,00001010100000000001000010011001001001000111100001,00000000000000000000000000000000000000000000000000,00000000000000000000000000000000000000000000000000,00000000000000000000000000000000000000000000000000,00000000000000000000000000000000000000000000000000,00000000000000000000000000000000000000000000000000,01000001011010010110111000100100100010110000011000,00000000000000000000000000000000000000000000000000,00000000000000000000000000000000000000000000000000,00000000000000000000000000000000000000000000000000,[],[],[],[],[],[],[],[],[20, 0, 19, 7, 0, 7, 0, 0, 0, 0, 0, 20, 0, 19, 20, 0, 3, 0, 0, 0, 0, 0, 0, 7, 0, 9, 0, 0, 0, 0, 3, 0, 0, 19, 0, 20, 0, 0, 0, 0, 17, 0, 0, 0, 0, 0, 0, 9, 7, 0],[],[0, 0, 0, 0, 14, 0, 6, 0, 8, 0, 0, 0, 0, 0, 0, 0, 0, 0, 0, 18, 0, 0, 0, 0, 11, 0, 0, 12, 12, 0, 0, 18, 0, 0, 6, 0, 0, 8, 0, 0, 0, 12, 11, 18, 8, 0, 0, 0, 0, 11],[],[],[],[],[],[0, 10, 0, 0, 0, 0, 0, 4, 0, 10, 15, 0, 4, 0, 0, 2, 0, 2, 5, 0, 15, 5, 4, 0, 0, 0, 4, 0, 0, 10, 0, 0, 15, 0, 0, 0, 2, 0, 2, 4, 0, 0, 0, 0, 0, 2, 15, 0, 0, 0],[],[],[][],[42, 43, 4, 6, 49],[16, 0],[10, 1, 29, 9],[23, 3],[22],[40, 5, 35, 33],[11, 2],[],[14, 25, 30],[21, 20, 36, 32, 18, 12],[38, 17, 26],[48, 47, 13],[41, 8],[39, 7, 46],[31, 44],[],[15, 45],[34, 19, 37, 24, 27, 28],[]
00000000000000000000000000000000000000000000000000,00000000000000000000000000000000000000000000000000,00000000000000000000000000000000000000000000000000,00000000000000000000000000000000000000000000000000,00000000000000000000000000000000000000000000000000,00000000000000000000000000000000000000000000000000,00000000000000000000000000000000000000000000000000,00000000000000000000000000000000000000000000000000,10110100000101101000000101000010010100001000000110,00000000000000000000000000000000000000000000000000,00001010100000000001000010011001001001000111100001,00000000000000000000000000000000000000000000000000,00000000000000000000000000000000000000000000000000,00000000000000000000000000000000000000000000000000,00000000000000000000000000000000000000000000000000,00000000000000000000000000000000000000000000000000,01000001011010010110111000100100100010110000011000,00000000000000000000000000000000000000000000000000,00000000000000000000000000000000000000000000000000,00000000000000000000000000000000000000000000000000,[],[],[],[],[],[],[],[],[7, 0, 10, 7, 0, 11, 0, 0, 0, 0, 0, 7, 0, 4, 11, 0, 10, 0, 0, 0, 0, 0, 0, 7, 0, 7, 0, 0, 0, 0, 9, 0, 0, 10, 0, 4, 0, 0, 0, 0, 9, 0, 0, 0, 0, 0, 0, 11, 9, 0],[],[0, 0, 0, 0, 14, 0, 18, 0, 14, 0, 0, 0, 0, 0, 0, 0, 0, 0, 0, 6, 0, 0, 0, 0, 8, 0, 0, 1, 6, 0, 0, 14, 0, 0, 14, 0, 0, 14, 0, 0, 0, 6, 14, 8, 18, 0, 0, 0, 0, 6],[],[],[],[],[],[0, 2, 0, 0, 0, 0, 0, 15, 0, 2, 3, 0, 3, 0, 0, 20, 0, 16, 20, 0, 2, 15, 20, 0, 0, 0, 16, 0, 0, 2, 0, 0, 15, 0, 0, 0, 2, 0, 16, 19, 0, 0, 0, 0, 0, 12, 20, 0, 0, 0],[],[],[][10, 32, 38, 45, 17],[46, 12, 39],[],[18, 20],[11, 3, 40],[31, 44, 42],[47, 14],[33, 25, 16, 48],[21, 36, 29],[35, 23, 2],[9, 26, 7],[30, 0],[4, 49, 24, 6, 8],[28, 37, 43, 27, 34],[13, 5],[],[],[],[41, 19],[22, 1, 15]
00000000000000000000000000000000000000000000000000,00000000000000000000000000000000000000000000000000,00000000000000000000000000000000000000000000000000,00000000000000000000000000000000000000000000000000,00000000000000000000000000000000000000000000000000,00000000000000000000000000000000000000000000000000,00000000000000000000000000000000000000000000000000,00000000000000000000000000000000000000000000000000,10110100000101101000000101000010010100001000000110,00000000000000000000000000000000000000000000000000,00001010100000000001000010011001001001000111100001,00000000000000000000000000000000000000000000000000,00000000000000000000000000000000000000000000000000,00000000000000000000000000000000000000000000000000,00000000000000000000000000000000000000000000000000,00000000000000000000000000000000000000000000000000,01000001011010010110111000100100100010110000011000,00000000000000000000000000000000000000000000000000,00000000000000000000000000000000000000000000000000,00000000000000000000000000000000000000000000000000,[],[],[],[],[],[],[],[],[1, 0, 1, 18, 0, 18, 0, 0, 0, 0, 0, 5, 0, 2, 17, 0, 19, 0, 0, 0, 0, 0, 0, 19, 0, 5, 0, 0, 0, 0, 19, 0, 0, 17, 0, 1, 0, 0, 0, 0, 18, 0, 0, 0, 0, 0, 0, 17, 19, 0],[],[0, 0, 0, 0, 16, 0, 10, 0, 13, 0, 0, 0, 0, 0, 0, 0, 0, 0, 0, 14, 0, 0, 0, 0, 16, 0, 0, 14, 13, 0, 0, 8, 0, 0, 13, 0, 0, 20, 0, 0, 0, 13, 8, 8, 16, 0, 0, 0, 0, 13],[],[],[],[],[],[0, 15, 0, 0, 0, 0, 0, 6, 0, 15, 4, 0, 4, 0, 0, 15, 0, 6, 4, 0, 15, 3, 15, 0, 0, 0, 3, 0, 0, 6, 0, 0, 6, 0, 0, 0, 12, 0, 6, 6, 0, 0, 0, 0, 0, 4, 4, 0, 0, 0],[],[],[][38, 1, 15, 36, 7, 10],[24, 4, 31, 44, 6],[33],[29, 21, 17, 45, 26, 9],[],[2, 23, 48, 14],[],[27, 42],[19, 43, 8],[49, 41, 34],[22],[0, 35, 16],[5, 25],[32, 46, 12],[40, 47],[13, 30, 3],[28, 37],[20, 18, 39],[11],[]
00000000000000000000000000000000000000000000000000,00000000000000000000000000000000000000000000000000,00000000000000000000000000000000000000000000000000,00000000000000000000000000000000000000000000000000,00000000000000000000000000000000000000000000000000,00000000000000000000000000000000000000000000000000,00000000000000000000000000000000000000000000000000,00000000000000000000000000000000000000000000000000,10110100000101101000000101000010010100001000000110,00000000000000000000000000000000000000000000000000,00001010100000000001000010011001001001000111100001,00000000000000000000000000000000000000000000000000,00000000000000000000000000000000000000000000000000,00000000000000000000000000000000000000000000000000,00000000000000000000000000000000000000000000000000,00000000000000000000000000000000000000000000000000,01000001011010010110111000100100100010110000011000,00000000000000000000000000000000000000000000000000,00000000000000000000000000000000000000000000000000,00000000000000000000000000000000000000000000000000,[],[],[],[],[],[],[],[],[12, 0, 19, 20, 0, 4, 0, 0, 0, 0, 0, 1, 0, 1, 20, 0, 19, 0, 0, 0, 0, 0, 0, 1, 0, 12, 0, 0, 0, 0, 20, 0, 0, 12, 0, 4, 0, 0, 0, 0, 19, 0, 0, 0, 0, 0, 0, 12, 19, 0],[],[0, 0, 0, 0, 8, 0, 10, 0, 5, 0, 0, 0, 0, 0, 0, 0, 0, 0, 0, 6, 0, 0, 0, 0, 15, 0, 0, 6, 10, 0, 0, 17, 0, 0, 5, 0, 0, 17, 0, 0, 0, 6, 15, 10, 6, 0, 0, 0, 0, 8],[],[],[],[],[],[0, 9, 0, 0, 0, 0, 0, 13, 0, 7, 9, 0, 7, 0, 0, 13, 0, 9, 7, 0, 11, 7, 3, 0, 0, 0, 13, 0, 0, 11, 0, 0, 3, 0, 0, 0, 7, 0, 2, 7, 0, 0, 0, 0, 0, 11, 2, 0, 0, 0],[],[],[][37, 4],[0, 13, 5, 16, 40],[49, 34, 31],[21, 1, 10, 15],[25],[6, 43],[23],[48, 35, 33],[],[8, 27, 41, 42, 28],[14, 11, 47, 2],[44, 19, 24],[],[12, 26, 32, 38, 17],[9, 46, 22, 45],[3, 30],[],[18, 39, 20],[36],[29, 7]
00000000000000000000000000000000000000000000000000,00000000000000000000000000000000000000000000000000,00000000000000000000000000000000000000000000000000,00000000000000000000000000000000000000000000000000,00000000000000000000000000000000000000000000000000,00000000000000000000000000000000000000000000000000,00000000000000000000000000000000000000000000000000,00000000000000000000000000000000000000000000000000,10110100000101101000000101000010010100001000000110,00000000000000000000000000000000000000000000000000,00001010100000000001000010011001001001000111100001,00000000000000000000000000000000000000000000000000,00000000000000000000000000000000000000000000000000,00000000000000000000000000000000000000000000000000,00000000000000000000000000000000000000000000000000,00000000000000000000000000000000000000000000000000,01000001011010010110111000100100100010110000011000,00000000000000000000000000000000000000000000000000,00000000000000000000000000000000000000000000000000,00000000000000000000000000000000000000000000000000,[],[],[],[],[],[],[],[],[2, 0, 2, 5, 0, 2, 0, 0, 0, 0, 0, 12, 0, 17, 15, 0, 1, 0, 0, 0, 0, 0, 0, 12, 0, 12, 0, 0, 0, 0, 15, 0, 0, 15, 0, 1, 0, 0, 0, 0, 5, 0, 0, 0, 0, 0, 0, 12, 2, 0],[],[0, 0, 0, 0, 11, 0, 11, 0, 16, 0, 0, 0, 0, 0, 0, 0, 0, 0, 0, 11, 0, 0, 0, 0, 18, 0, 0, 18, 16, 0, 0, 8, 0, 0, 8, 0, 0, 11, 0, 0, 0, 9, 16, 7, 11, 0, 0, 0, 0, 9],[],[],[],[],[],[0, 10, 0, 0, 0, 0, 0, 20, 0, 19, 4, 0, 3, 0, 0, 19, 0, 14, 10, 0, 14, 4, 14, 0, 0, 0, 4, 0, 0, 10, 0, 0, 14, 0, 0, 0, 19, 0, 4, 4, 0, 0, 0, 0, 0, 10, 4, 0, 0, 0],[],[],[][2],[23, 3, 14, 40],[],[21, 22, 46],[18, 15, 17],[47, 25, 0],[49, 27, 19, 43, 37],[44, 42, 31],[41, 28],[29, 38, 7],[],[20, 1, 26],[45, 9, 39],[10, 36, 12],[5, 35, 33, 11],[],[13, 48],[32],[30, 16],[8, 4, 24, 6, 34]
00000000000000000000000000000000000000000000000000,00000000000000000000000000000000000000000000000000,00000000000000000000000000000000000000000000000000,00000000000000000000000000000000000000000000000000,00000000000000000000000000000000000000000000000000,00000000000000000000000000000000000000000000000000,00000000000000000000000000000000000000000000000000,00000000000000000000000000000000000000000000000000,10110100000101101000000101000010010100001000000110,00000000000000000000000000000000000000000000000000,00001010100000000001000010011001001001000111100001,00000000000000000000000000000000000000000000000000,00000000000000000000000000000000000000000000000000,00000000000000000000000000000000000000000000000000,00000000000000000000000000000000000000000000000000,00000000000000000000000000000000000000000000000000,01000001011010010110111000100100100010110000011000,00000000000000000000000000000000000000000000000000,00000000000000000000000000000000000000000000000000,00000000000000000000000000000000000000000000000000,[],[],[],[],[],[],[],[],[1, 0, 1, 11, 0, 18, 0, 0, 0, 0, 0, 2, 0, 2, 11, 0, 2, 0, 0, 0, 0, 0, 0, 6, 0, 13, 0, 0, 0, 0, 13, 0, 0, 6, 0, 13, 0, 0, 0, 0, 6, 0, 0, 0, 0, 0, 0, 6, 1, 0],[],[0, 0, 0, 0, 9, 0, 10, 0, 5, 0, 0, 0, 0, 0, 0, 0, 0, 0, 0, 9, 0, 0, 0, 0, 9, 0, 0, 10, 4, 0, 0, 12, 0, 0, 4, 0, 0, 10, 0, 0, 0, 10, 4, 5, 9, 0, 0, 0, 0, 12],[],[],[],[],[],[0, 14, 0, 0, 0, 0, 0, 19, 0, 3, 3, 0, 7, 0, 0, 7, 0, 14, 14, 0, 7, 19, 3, 0, 0, 0, 15, 0, 0, 15, 0, 0, 14, 0, 0, 0, 7, 0, 7, 14, 0, 0, 0, 0, 0, 7, 14, 0, 0, 0],[],[],[][15, 1],[28, 6, 4, 19],[42],[48, 14, 3, 5, 0, 30],[38, 29, 20],[12, 36],[10, 32, 17, 22, 21, 26],[33, 25],[],[16],[18, 7],[39, 9, 46],[],[13, 47, 11, 2, 23],[49, 31],[8, 43, 34, 44],[35, 40],[],[45],[37, 24, 27, 41]
00000000000000000000000000000000000000000000000000,00000000000000000000000000000000000000000000000000,00000000000000000000000000000000000000000000000000,00000000000000000000000000000000000000000000000000,00000000000000000000000000000000000000000000000000,00000000000000000000000000000000000000000000000000,00000000000000000000000000000000000000000000000000,00000000000000000000000000000000000000000000000000,10110100000101101000000101000010010100001000000110,00000000000000000000000000000000000000000000000000,00001010100000000001000010011001001001000111100001,00000000000000000000000000000000000000000000000000,00000000000000000000000000000000000000000000000000,00000000000000000000000000000000000000000000000000,00000000000000000000000000000000000000000000000000,00000000000000000000000000000000000000000000000000,01000001011010010110111000100100100010110000011000,00000000000000000000000000000000000000000000000000,00000000000000000000000000000000000000000000000000,00000000000000000000000000000000000000000000000000,[],[],[],[],[],[],[],[],[15, 0, 6, 1, 0, 1, 0, 0, 0, 0, 0, 1, 0, 2, 2, 0, 2, 0, 0, 0, 0, 0, 0, 16, 0, 15, 0, 0, 0, 0, 6, 0, 0, 16, 0, 2, 0, 0, 0, 0, 16, 0, 0, 0, 0, 0, 0, 1, 1, 0],[],[0, 0, 0, 0, 5, 0, 8, 0, 5, 0, 0, 0, 0, 0, 0, 0, 0, 0, 0, 4, 0, 0, 0, 0, 8, 0, 0, 4, 4, 0, 0, 8, 0, 0, 11, 0, 0, 9, 0, 0, 0, 11, 11, 13, 9, 0, 0, 0, 0, 13],[],[],[],[],[],[0, 7, 0, 0, 0, 0, 0, 12, 0, 7, 7, 0, 7, 0, 0, 12, 0, 7, 7, 0, 19, 10, 3, 0, 0, 0, 10, 0, 0, 3, 0, 0, 12, 0, 0, 0, 3, 0, 10, 12, 0, 0, 0, 0, 0, 19, 10, 0, 0, 0],[],[],[][24, 37, 6, 27, 41],[15, 21],[31, 34],[0, 2, 40, 11],[],[26, 22, 7, 36, 29, 18],[33, 14, 5, 3, 30],[28, 43],[23, 35],[12, 46, 17, 10],[20],[13, 16],[9, 45, 38, 1, 39],[44, 42, 19],[47, 48, 25],[],[],[32],[4, 49, 8],[]
00000000000000000000000000000000000000000000000000,00000000000000000000000000000000000000000000000000,00000000000000000000000000000000000000000000000000,00000000000000000000000000000000000000000000000000,00000000000000000000000000000000000000000000000000,00000000000000000000000000000000000000000000000000,00000000000000000000000000000000000000000000000000,00000000000000000000000000000000000000000000000000,10110100000101101000000101000010010100001000000110,00000000000000000000000000000000000000000000000000,00001010100000000001000010011001001001000111100001,00000000000000000000000000000000000000000000000000,00000000000000000000000000000000000000000000000000,00000000000000000000000000000000000000000000000000,00000000000000000000000000000000000000000000000000,00000000000000000000000000000000000000000000000000,01000001011010010110111000100100100010110000011000,00000000000000000000000000000000000000000000000000,00000000000000000000000000000000000000000000000000,00000000000000000000000000000000000000000000000000,[],[],[],[],[],[],[],[],[10, 0, 10, 17, 0, 9, 0, 0, 0, 0, 0, 9, 0, 20, 16, 0, 9, 0, 0, 0, 0, 0, 0, 19, 0, 10, 0, 0, 0, 0, 19, 0, 0, 17, 0, 15, 0, 0, 0, 0, 19, 0, 0, 0, 0, 0, 0, 16, 9, 0],[],[0, 0, 0, 0, 4, 0, 8, 0, 13, 0, 0, 0, 0, 0, 0, 0, 0, 0, 0, 12, 0, 0, 0, 0, 8, 0, 0, 4, 12, 0, 0, 12, 0, 0, 12, 0, 0, 13, 0, 0, 0, 4, 8, 8, 4, 0, 0, 0, 0, 13],[],[],[],[],[],[0, 1, 0, 0, 0, 0, 0, 7, 0, 7, 6, 0, 2, 0, 0, 14, 0, 2, 7, 0, 1, 7, 1, 0, 0, 0, 6, 0, 0, 1, 0, 0, 7, 0, 0, 0, 7, 0, 5, 5, 0, 0, 0, 0, 0, 6, 1, 0, 0, 0],[],[],[][28, 49, 4],[8, 19],[],[10, 32, 17, 12],[6],[],[36, 21, 46],[11, 40, 14],[13],[26, 38, 7, 39, 18],[37, 43],[2, 16, 25, 30],[],[41, 44, 27, 24],[0, 5, 35, 23],[22, 1, 29, 9],[33],[15, 20, 45],[48, 47, 3],[31, 34, 42]
00000000000000000000000000000000000000000000000000,00000000000000000000000000000000000000000000000000,00000000000000000000000000000000000000000000000000,00000000000000000000000000000000000000000000000000,00000000000000000000000000000000000000000000000000,00000000000000000000000000000000000000000000000000,00000000000000000000000000000000000000000000000000,00000000000000000000000000000000000000000000000000,10110100000101101000000101000010010100001000000110,00000000000000000000000000000000000000000000000000,00001010100000000001000010011001001001000111100001,00000000000000000000000000000000000000000000000000,00000000000000000000000000000000000000000000000000,00000000000000000000000000000000000000000000000000,00000000000000000000000000000000000000000000000000,00000000000000000000000000000000000000000000000000,01000001011010010110111000100100100010110000011000,00000000000000000000000000000000000000000000000000,00000000000000000000000000000000000000000000000000,00000000000000000000000000000000000000000000000000,[],[],[],[],[],[],[],[],[7, 0, 8, 10, 0, 19, 0, 0, 0, 0, 0, 7, 0, 7, 7, 0, 10, 0, 0, 0, 0, 0, 0, 7, 0, 7, 0, 0, 0, 0, 19, 0, 0, 10, 0, 10, 0, 0, 0, 0, 10, 0, 0, 0, 0, 0, 0, 10, 19, 0],[],[0, 0, 0, 0, 12, 0, 13, 0, 17, 0, 0, 0, 0, 0, 0, 0, 0, 0, 0, 9, 0, 0, 0, 0, 2, 0, 0, 15, 13, 0, 0, 3, 0, 0, 15, 0, 0, 13, 0, 0, 0, 15, 12, 9, 3, 0, 0, 0, 0, 12],[],[],[],[],[],[0, 5, 0, 0, 0, 0, 0, 1, 0, 11, 18, 0, 4, 0, 0, 5, 0, 6, 6, 0, 6, 6, 5, 0, 0, 0, 18, 0, 0, 6, 0, 0, 11, 0, 0, 0, 5, 0, 4, 4, 0, 0, 0, 0, 0, 6, 1, 0, 0, 0],[],[],[][3, 2],[31],[40, 47],[27, 19, 28],[49, 43],[10, 45],[39, 29, 36, 46],[12, 9, 22, 26],[4, 24, 8, 42, 34, 44],[30, 35, 5, 33],[48, 23, 0, 16],[],[11, 14],[13, 25],[1, 7, 18],[6, 41, 37],[21, 20, 32],[],[17, 38, 15],[]
00000000000000000000000000000000000000000000000000,00000000000000000000000000000000000000000000000000,00000000000000000000000000000000000000000000000000,00000000000000000000000000000000000000000000000000,00000000000000000000000000000000000000000000000000,00000000000000000000000000000000000000000000000000,00000000000000000000000000000000000000000000000000,00000000000000000000000000000000000000000000000000,10110100000101101000000101000010010100001000000110,00000000000000000000000000000000000000000000000000,00001010100000000001000010011001001001000111100001,00000000000000000000000000000000000000000000000000,00000000000000000000000000000000000000000000000000,00000000000000000000000000000000000000000000000000,00000000000000000000000000000000000000000000000000,00000000000000000000000000000000000000000000000000,01000001011010010110111000100100100010110000011000,00000000000000000000000000000000000000000000000000,00000000000000000000000000000000000000000000000000,00000000000000000000000000000000000000000000000000,[],[],[],[],[],[],[],[],[4, 0, 18, 17, 0, 7, 0, 0, 0, 0, 0, 17, 0, 15, 15, 0, 15, 0, 0, 0, 0, 0, 0, 7, 0, 4, 0, 0, 0, 0, 7, 0, 0, 4, 0, 12, 0, 0, 0, 0, 7, 0, 0, 0, 0, 0, 0, 15, 4, 0],[],[0, 0, 0, 0, 11, 0, 11, 0, 11, 0, 0, 0, 0, 0, 0, 0, 0, 0, 0, 3, 0, 0, 0, 0, 19, 0, 0, 19, 2, 0, 0, 2, 0, 0, 2, 0, 0, 2, 0, 0, 0, 11, 19, 3, 2, 0, 0, 0, 0, 19],[],[],[],[],[],[0, 8, 0, 0, 0, 0, 0, 9, 0, 10, 6, 0, 10, 0, 0, 5, 0, 14, 14, 0, 6, 8, 6, 0, 0, 0, 8, 0, 0, 6, 0, 0, 10, 0, 0, 0, 5, 0, 5, 6, 0, 0, 0, 0, 0, 9, 1, 0, 0, 0],[],[],[][8, 44, 19, 24, 6, 43],[20, 38, 39],[34, 49],[12, 46, 10],[42],[11, 40, 0],[],[13, 33],[41, 37],[7, 32, 29],[21, 36],[25, 14, 16],[17, 45, 9],[23, 2, 35],[48, 3, 30, 47],[31, 28, 4, 27],[5],[],[22, 26, 1, 15, 18],[]
00000000000000000000000000000000000000000000000000,00000000000000000000000000000000000000000000000000,00000000000000000000000000000000000000000000000000,00000000000000000000000000000000000000000000000000,00000000000000000000000000000000000000000000000000,00000000000000000000000000000000000000000000000000,00000000000000000000000000000000000000000000000000,00000000000000000000000000000000000000000000000000,10110100000101101000000101000010010100001000000110,00000000000000000000000000000000000000000000000000,00001010100000000001000010011001001001000111100001,00000000000000000000000000000000000000000000000000,00000000000000000000000000000000000000000000000000,00000000000000000000000000000000000000000000000000,00000000000000000000000000000000000000000000000000,00000000000000000000000000000000000000000000000000,01000001011010010110111000100100100010110000011000,00000000000000000000000000000000000000000000000000,00000000000000000000000000000000000000000000000000,00000000000000000000000000000000000000000000000000,[],[],[],[],[],[],[],[],[1, 0, 14, 1, 0, 12, 0, 0, 0, 0, 0, 14, 0, 14, 4, 0, 4, 0, 0, 0, 0, 0, 0, 1, 0, 14, 0, 0, 0, 0, 12, 0, 0, 4, 0, 12, 0, 0, 0, 0, 1, 0, 0, 0, 0, 0, 0, 14, 4, 0],[],[0, 0, 0, 0, 15, 0, 19, 0, 9, 0, 0, 0, 0, 0, 0, 0, 0, 0, 0, 15, 0, 0, 0, 0, 9, 0, 0, 15, 18, 0, 0, 9, 0, 0, 18, 0, 0, 19, 0, 0, 0, 6, 18, 6, 6, 0, 0, 0, 0, 9],[],[],[],[],[],[0, 13, 0, 0, 0, 0, 0, 11, 0, 20, 8, 0, 11, 0, 0, 2, 0, 20, 2, 0, 16, 2, 13, 0, 0, 0, 8, 0, 0, 2, 0, 0, 11, 0, 0, 0, 11, 0, 2, 16, 0, 0, 0, 0, 0, 10, 13, 0, 0, 0],[],[],[][2, 14, 16, 13, 47],[11, 48, 23, 35, 40],[4],[3],[33, 5, 25],[24, 19, 43, 49, 44],[0],[27, 8],[36, 15, 17],[30],[],[37, 28, 34, 31],[41, 42],[9, 22, 46, 26, 18],[39, 38, 32, 21],[12, 10, 1],[6],[],[45, 20, 7, 29],[]
00000000000000000000000000000000000000000000000000,00000000000000000000000000000000000000000000000000,00000000000000000000000000000000000000000000000000,00000000000000000000000000000000000000000000000000,00000000000000000000000000000000000000000000000000,00000000000000000000000000000000000000000000000000,00000000000000000000000000000000000000000000000000,00000000000000000000000000000000000000000000000000,10110100000101101000000101000010010100001000000110,00000000000000000000000000000000000000000000000000,00001010100000000001000010011001001001000111100001,00000000000000000000000000000000000000000000000000,00000000000000000000000000000000000000000000000000,00000000000000000000000000000000000000000000000000,00000000000000000000000000000000000000000000000000,00000000000000000000000000000000000000000000000000,01000001011010010110111000100100100010110000011000,00000000000000000000000000000000000000000000000000,00000000000000000000000000000000000000000000000000,00000000000000000000000000000000000000000000000000,[],[],[],[],[],[],[],[],[6, 0, 13, 6, 0, 6, 0, 0, 0, 0, 0, 1, 0, 9, 6, 0, 8, 0, 0, 0, 0, 0, 0, 8, 0, 9, 0, 0, 0, 0, 1, 0, 0, 9, 0, 13, 0, 0, 0, 0, 8, 0, 0, 0, 0, 0, 0, 13, 6, 0],[],[0, 0, 0, 0, 2, 0, 7, 0, 2, 0, 0, 0, 0, 0, 0, 0, 0, 0, 0, 20, 0, 0, 0, 0, 2, 0, 0, 7, 2, 0, 0, 19, 0, 0, 12, 0, 0, 20, 0, 0, 0, 12, 7, 20, 5, 0, 0, 0, 0, 2],[],[],[],[],[],[0, 14, 0, 0, 0, 0, 0, 15, 0, 4, 14, 0, 4, 0, 0, 17, 0, 17, 4, 0, 10, 4, 15, 0, 0, 0, 16, 0, 0, 15, 0, 0, 16, 0, 0, 0, 4, 0, 4, 15, 0, 0, 0, 0, 0, 14, 10, 0, 0, 0],[],[],[][28, 41, 19, 6, 24],[48, 16, 0, 11],[22, 15],[49, 27, 42],[],[],[26, 1, 39],[4],[43, 34],[9, 46, 12],[2, 3, 33],[21, 38, 36, 29],[25, 5, 30],[40, 14],[8, 37, 31, 44],[35, 13],[47, 23],[],[7, 20, 45, 17],[18, 32, 10]
00000000000000000000000000000000000000000000000000,00000000000000000000000000000000000000000000000000,00000000000000000000000000000000000000000000000000,00000000000000000000000000000000000000000000000000,00000000000000000000000000000000000000000000000000,00000000000000000000000000000000000000000000000000,00000000000000000000000000000000000000000000000000,00000000000000000000000000000000000000000000000000,10110100000101101000000101000010010100001000000110,00000000000000000000000000000000000000000000000000,00001010100000000001000010011001001001000111100001,00000000000000000000000000000000000000000000000000,00000000000000000000000000000000000000000000000000,00000000000000000000000000000000000000000000000000,00000000000000000000000000000000000000000000000000,00000000000000000000000000000000000000000000000000,01000001011010010110111000100100100010110000011000,00000000000000000000000000000000000000000000000000,00000000000000000000000000000000000000000000000000,00000000000000000000000000000000000000000000000000,[],[],[],[],[],[],[],[],[7, 0, 11, 11, 0, 10, 0, 0, 0, 0, 0, 1, 0, 10, 10, 0, 10, 0, 0, 0, 0, 0, 0, 7, 0, 11, 0, 0, 0, 0, 7, 0, 0, 11, 0, 11, 0, 0, 0, 0, 5, 0, 0, 0, 0, 0, 0, 11, 19, 0],[],[0, 0, 0, 0, 16, 0, 4, 0, 20, 0, 0, 0, 0, 0, 0, 0, 0, 0, 0, 13, 0, 0, 0, 0, 4, 0, 0, 4, 4, 0, 0, 8, 0, 0, 13, 0, 0, 17, 0, 0, 0, 20, 20, 20, 16, 0, 0, 0, 0, 13],[],[],[],[],[],[0, 6, 0, 0, 0, 0, 0, 6, 0, 15, 6, 0, 14, 0, 0, 2, 0, 15, 6, 0, 15, 14, 6, 0, 0, 0, 2, 0, 0, 2, 0, 0, 2, 0, 0, 0, 2, 0, 3, 14, 0, 0, 0, 0, 0, 3, 6, 0, 0, 0],[],[],[][16, 3],[36, 7],[9, 20],[48, 40, 13, 23],[12, 45, 15],[1],[37, 49, 8],[30, 14, 11],[22, 10, 38, 18, 39],[19, 44],[46, 32, 29],[42, 31, 6, 24],[26, 17, 21],[33, 2],[43, 4, 41],[],[],[],[35, 25, 5, 0, 47],[27, 28, 34]
